p cnf 3357
-19 -288
-20 -101
-21 -104
-22 -107
-23 -110
-24 -113
-25 -116
-26 -119
-27 -122
-28 -125
-29 -335
-30 -341
-31 -347
-32 -353
-33 -359
-34 -365
-35 -371
-36 -377
-37 -383
-38 -410
-39 -429
-40 -447
-41 -457
-42 -476
-43 -495
-44 -513
-45 -523
-46 -542
-47 -561
-48 -579
-49 -589
-50 -608
-51 -627
-52 -645
-53 -655
-54 -674
-55 -693
-56 -711
-57 -721
-58 -740
-59 -759
-60 -777
-61 -787
-62 -806
-63 -825
-64 -843
-65 -853
-66 -872
-67 -891
-68 -909
-69 -919
-70 -938
-71 -957
-72 -975
-73 -985
-74 -1043
-75 1
-75 -29
-1 29 75
-76 2
-76 -30
-2 30 76
-77 3
-77 -31
-3 31 77
-78 4
-78 -32
-4 32 78
-79 5
-79 -33
-5 33 79
-80 6
-80 -34
-6 34 80
-81 7
-81 -35
-7 35 81
-82 8
-82 -36
-8 36 82
-83 9
-83 -37
-9 37 83
-84 -75
-84 76
75 -76 84
-85 -75
-85 -84
75 84 85
-86 77
-86 85
-77 -85 86
-87 85
-87 -86
-85 86 87
-88 78
-88 87
-78 -87 88
-89 87
-89 -88
-87 88 89
-90 79
-90 89
-79 -89 90
-91 89
-91 -90
-89 90 91
-92 80
-92 91
-80 -91 92
-93 91
-93 -92
-91 92 93
-94 81
-94 93
-81 -93 94
-95 93
-95 -94
-93 94 95
-96 82
-96 95
-82 -95 96
-97 95
-97 -96
-95 96 97
-98 83
-98 97
-83 -97 98
-99 -19
-99 75
19 -75 99
-100 19
-100 20
-19 -20 100
-101 -99
-101 -100
99 100 101
-102 -19
-102 84
19 -84 102
-103 19
-103 21
-19 -21 103
-104 -102
-104 -103
102 103 104
-105 -19
-105 86
19 -86 105
-106 19
-106 22
-19 -22 106
-107 -105
-107 -106
105 106 107
-108 -19
-108 88
19 -88 108
-109 19
-109 23
-19 -23 109
-110 -108
-110 -109
108 109 110
-111 -19
-111 90
19 -90 111
-112 19
-112 24
-19 -24 112
-113 -111
-113 -112
111 112 113
-114 -19
-114 92
19 -92 114
-115 19
-115 25
-19 -25 115
-116 -114
-116 -115
114 115 116
-117 -19
-117 94
19 -94 117
-118 19
-118 26
-19 -26 118
-119 -117
-119 -118
117 118 119
-120 -19
-120 96
19 -96 120
-121 19
-121 27
-19 -27 121
-122 -120
-122 -121
120 121 122
-123 -19
-123 98
19 -98 123
-124 19
-124 28
-19 -28 124
-125 -123
-125 -124
123 124 125
-126 1
-126 -101
-1 101 126
-127 2
-127 -104
-2 104 127
-128 3
-128 -107
-3 107 128
-129 4
-129 -110
-4 110 129
-130 5
-130 -113
-5 113 130
-131 6
-131 -116
-6 116 131
-132 7
-132 -119
-7 119 132
-133 8
-133 -122
-8 122 133
-134 9
-134 -125
-9 125 134
-135 38
-135 -39
-38 39 135
-136 -40
-136 -41
40 41 136
-137 135
-137 136
-135 -136 137
-138 -38
-138 -39
38 39 138
-139 -40
-139 41
40 -41 139
-140 138
-140 139
-138 -139 140
-141 -137
-141 -140
137 140 141
-142 126
-142 -141
-126 141 142
-143 42
-143 -43
-42 43 143
-144 -44
-144 -45
44 45 144
-145 143
-145 144
-143 -144 145
-146 -42
-146 -43
42 43 146
-147 -44
-147 45
44 -45 147
-148 146
-148 147
-146 -147 148
-149 -145
-149 -148
145 148 149
-150 127
-150 -149
-127 149 150
-151 46
-151 -47
-46 47 151
-152 -48
-152 -49
48 49 152
-153 151
-153 152
-151 -152 153
-154 -46
-154 -47
46 47 154
-155 -48
-155 49
48 -49 155
-156 154
-156 155
-154 -155 156
-157 -153
-157 -156
153 156 157
-158 128
-158 -157
-128 157 158
-159 50
-159 -51
-50 51 159
-160 -52
-160 -53
52 53 160
-161 159
-161 160
-159 -160 161
-162 -50
-162 -51
50 51 162
-163 -52
-163 53
52 -53 163
-164 162
-164 163
-162 -163 164
-165 -161
-165 -164
161 164 165
-166 129
-166 -165
-129 165 166
-167 54
-167 -55
-54 55 167
-168 -56
-168 -57
56 57 168
-169 167
-169 168
-167 -168 169
-170 -54
-170 -55
54 55 170
-171 -56
-171 57
56 -57 171
-172 170
-172 171
-170 -171 172
-173 -169
-173 -172
169 172 173
-174 130
-174 -173
-130 173 174
-175 58
-175 -59
-58 59 175
-176 -60
-176 -61
60 61 176
-177 175
-177 176
-175 -176 177
-178 -58
-178 -59
58 59 178
-179 -60
-179 61
60 -61 179
-180 178
-180 179
-178 -179 180
-181 -177
-181 -180
177 180 181
-182 131
-182 -181
-131 181 182
-183 62
-183 -63
-62 63 183
-184 -64
-184 -65
64 65 184
-185 183
-185 184
-183 -184 185
-186 -62
-186 -63
62 63 186
-187 -64
-187 65
64 -65 187
-188 186
-188 187
-186 -187 188
-189 -185
-189 -188
185 188 189
-190 132
-190 -189
-132 189 190
-191 66
-191 -67
-66 67 191
-192 -68
-192 -69
68 69 192
-193 191
-193 192
-191 -192 193
-194 -66
-194 -67
66 67 194
-195 -68
-195 69
68 -69 195
-196 194
-196 195
-194 -195 196
-197 -193
-197 -196
193 196 197
-198 133
-198 -197
-133 197 198
-199 70
-199 -71
-70 71 199
-200 -72
-200 -73
72 73 200
-201 199
-201 200
-199 -200 201
-202 -70
-202 -71
70 71 202
-203 -72
-203 73
72 -73 203
-204 202
-204 203
-202 -203 204
-205 -201
-205 -204
201 204 205
-206 134
-206 -205
-134 205 206
-207 -142
-207 -150
142 150 207
-208 -158
-208 -166
158 166 208
-209 -174
-209 -182
174 182 209
-210 -190
-210 -198
190 198 210
-211 207
-211 208
-207 -208 211
-212 209
-212 210
-209 -210 212
-213 211
-213 212
-211 -212 213
-214 -206
-214 213
206 -213 214
-215 -38
-215 39
38 -39 215
-216 40
-216 -41
-40 41 216
-217 215
-217 216
-215 -216 217
-218 40
-218 41
-40 -41 218
-219 135
-219 218
-135 -218 219
-220 -217
-220 -219
217 219 220
-221 126
-221 -220
-126 220 221
-222 -42
-222 43
42 -43 222
-223 44
-223 -45
-44 45 223
-224 222
-224 223
-222 -223 224
-225 44
-225 45
-44 -45 225
-226 143
-226 225
-143 -225 226
-227 -224
-227 -226
224 226 227
-228 127
-228 -227
-127 227 228
-229 -46
-229 47
46 -47 229
-230 48
-230 -49
-48 49 230
-231 229
-231 230
-229 -230 231
-232 48
-232 49
-48 -49 232
-233 151
-233 232
-151 -232 233
-234 -231
-234 -233
231 233 234
-235 128
-235 -234
-128 234 235
-236 -50
-236 51
50 -51 236
-237 52
-237 -53
-52 53 237
-238 236
-238 237
-236 -237 238
-239 52
-239 53
-52 -53 239
-240 159
-240 239
-159 -239 240
-241 -238
-241 -240
238 240 241
-242 129
-242 -241
-129 241 242
-243 -54
-243 55
54 -55 243
-244 56
-244 -57
-56 57 244
-245 243
-245 244
-243 -244 245
-246 56
-246 57
-56 -57 246
-247 167
-247 246
-167 -246 247
-248 -245
-248 -247
245 247 248
-249 130
-249 -248
-130 248 249
-250 -58
-250 59
58 -59 250
-251 60
-251 -61
-60 61 251
-252 250
-252 251
-250 -251 252
-253 60
-253 61
-60 -61 253
-254 175
-254 253
-175 -253 254
-255 -252
-255 -254
252 254 255
-256 131
-256 -255
-131 255 256
-257 -62
-257 63
62 -63 257
-258 64
-258 -65
-64 65 258
-259 257
-259 258
-257 -258 259
-260 64
-260 65
-64 -65 260
-261 183
-261 260
-183 -260 261
-262 -259
-262 -261
259 261 262
-263 132
-263 -262
-132 262 263
-264 -66
-264 67
66 -67 264
-265 68
-265 -69
-68 69 265
-266 264
-266 265
-264 -265 266
-267 68
-267 69
-68 -69 267
-268 191
-268 267
-191 -267 268
-269 -266
-269 -268
266 268 269
-270 133
-270 -269
-133 269 270
-271 -70
-271 71
70 -71 271
-272 72
-272 -73
-72 73 272
-273 271
-273 272
-271 -272 273
-274 72
-274 73
-72 -73 274
-275 199
-275 274
-199 -274 275
-276 -273
-276 -275
273 275 276
-277 134
-277 -276
-134 276 277
-278 -221
-278 -228
221 228 278
-279 -235
-279 -242
235 242 279
-280 -249
-280 -256
249 256 280
-281 -263
-281 -270
263 270 281
-282 278
-282 279
-278 -279 282
-283 280
-283 281
-280 -281 283
-284 282
-284 283
-282 -283 284
-285 -277
-285 284
277 -284 285
-286 19
-286 285
-19 -285 286
-287 214
-287 286
-214 -286 287
-288 214
-288 -287
-214 287 288
-289 -29
-289 30
29 -30 289
-290 -29
-290 -289
29 289 290
-291 31
-291 290
-31 -290 291
-292 290
-292 -291
-290 291 292
-293 32
-293 292
-32 -292 293
-294 292
-294 -293
-292 293 294
-295 33
-295 294
-33 -294 295
-296 294
-296 -295
-294 295 296
-297 34
-297 296
-34 -296 297
-298 296
-298 -297
-296 297 298
-299 35
-299 298
-35 -298 299
-300 298
-300 -299
-298 299 300
-301 36
-301 300
-36 -300 301
-302 300
-302 -301
-300 301 302
-303 37
-303 302
-37 -302 303
-304 138
-304 218
-138 -218 304
-305 126
-305 304
-126 -304 305
-306 146
-306 225
-146 -225 306
-307 127
-307 306
-127 -306 307
-308 154
-308 232
-154 -232 308
-309 128
-309 308
-128 -308 309
-310 162
-310 239
-162 -239 310
-311 129
-311 310
-129 -310 311
-312 170
-312 246
-170 -246 312
-313 130
-313 312
-130 -312 313
-314 178
-314 253
-178 -253 314
-315 131
-315 314
-131 -314 315
-316 186
-316 260
-186 -260 316
-317 132
-317 316
-132 -316 317
-318 194
-318 267
-194 -267 318
-319 133
-319 318
-133 -318 319
-320 202
-320 274
-202 -274 320
-321 134
-321 320
-134 -320 321
-322 -305
-322 -307
305 307 322
-323 -309
-323 -311
309 311 323
-324 -313
-324 -315
313 315 324
-325 -317
-325 -319
317 319 325
-326 322
-326 323
-322 -323 326
-327 324
-327 325
-324 -325 327
-328 326
-328 327
-326 -327 328
-329 -321
-329 328
321 -328 329
-330 135
-330 216
-135 -216 330
-331 126
-331 330
-126 -330 331
-332 29
-332 -329
-29 329 332
-333 29
-333 -332
-29 332 333
-334 -331
-334 333
331 -333 334
-335 -331
-335 -334
331 334 335
-336 143
-336 223
-143 -223 336
-337 127
-337 336
-127 -336 337
-338 289
-338 -329
-289 329 338
-339 30
-339 -338
-30 338 339
-340 -337
-340 339
337 -339 340
-341 -337
-341 -340
337 340 341
-342 151
-342 230
-151 -230 342
-343 128
-343 342
-128 -342 343
-344 291
-344 -329
-291 329 344
-345 31
-345 -344
-31 344 345
-346 -343
-346 345
343 -345 346
-347 -343
-347 -346
343 346 347
-348 159
-348 237
-159 -237 348
-349 129
-349 348
-129 -348 349
-350 293
-350 -329
-293 329 350
-351 32
-351 -350
-32 350 351
-352 -349
-352 351
349 -351 352
-353 -349
-353 -352
349 352 353
-354 167
-354 244
-167 -244 354
-355 130
-355 354
-130 -354 355
-356 295
-356 -329
-295 329 356
-357 33
-357 -356
-33 356 357
-358 -355
-358 357
355 -357 358
-359 -355
-359 -358
355 358 359
-360 175
-360 251
-175 -251 360
-361 131
-361 360
-131 -360 361
-362 297
-362 -329
-297 329 362
-363 34
-363 -362
-34 362 363
-364 -361
-364 363
361 -363 364
-365 -361
-365 -364
361 364 365
-366 183
-366 258
-183 -258 366
-367 132
-367 366
-132 -366 367
-368 299
-368 -329
-299 329 368
-369 35
-369 -368
-35 368 369
-370 -367
-370 369
367 -369 370
-371 -367
-371 -370
367 370 371
-372 191
-372 265
-191 -265 372
-373 133
-373 372
-133 -372 373
-374 301
-374 -329
-301 329 374
-375 36
-375 -374
-36 374 375
-376 -373
-376 375
373 -375 376
-377 -373
-377 -376
373 376 377
-378 199
-378 272
-199 -272 378
-379 134
-379 378
-134 -378 379
-380 303
-380 -329
-303 329 380
-381 37
-381 -380
-37 380 381
-382 -379
-382 381
379 -381 382
-383 -379
-383 -382
379 382 383
-384 -29
-384 -30
29 30 384
-385 -31
-385 -32
31 32 385
-386 -33
-386 -34
33 34 386
-387 -35
-387 -36
35 36 387
-388 384
-388 385
-384 -385 388
-389 386
-389 387
-386 -387 389
-390 388
-390 389
-388 -389 390
-391 -37
-391 390
37 -390 391
-392 -39
-392 -138
39 138 392
-393 40
-393 138
-40 -138 393
-394 -40
-394 -392
40 392 394
-395 -393
-395 -394
393 394 395
-396 -10
-396 38
10 -38 396
-397 38
-397 -396
-38 396 397
-398 39
-398 -397
-39 397 398
-399 10
-399 -38
-10 38 399
-400 -39
-400 399
39 -399 400
-401 -215
-401 -400
215 400 401
-402 40
-402 398
-40 -398 402
-403 -40
-403 -401
40 401 403
-404 -402
-404 -403
402 403 404
-405 41
-405 -395
-41 395 405
-406 -41
-406 -404
41 404 406
-407 -405
-407 -406
405 406 407
-408 126
-408 -407
-126 407 408
-409 38
-409 -126
-38 126 409
-410 -408
-410 -409
408 409 410
-411 38
-411 391
-38 -391 411
-412 -39
-412 411
39 -411 412
-413 -215
-413 -412
215 412 413
-414 40
-414 135
-40 -135 414
-415 -40
-415 -413
40 413 415
-416 -414
-416 -415
414 415 416
-417 39
-417 -398
-39 398 417
-418 -38
-418 -74
38 74 418
-419 39
-419 418
-39 -418 419
-420 -135
-420 -419
135 419 420
-421 40
-421 -417
-40 417 421
-422 -40
-422 -420
40 420 422
-423 -421
-423 -422
421 422 423
-424 41
-424 -416
-41 416 424
-425 -41
-425 -423
41 423 425
-426 -424
-426 -425
424 425 426
-427 126
-427 -426
-126 426 427
-428 39
-428 -126
-39 126 428
-429 -427
-429 -428
427 428 429
-430 38
-430 -391
-38 391 430
-431 38
-431 39
-38 -39 431
-432 -39
-432 430
39 -430 432
-433 -431
-433 -432
431 432 433
-434 -39
-434 40
39 -40 434
-435 -40
-435 -433
40 433 435
-436 -434
-436 -435
434 435 436
-437 -38
-437 74
38 -74 437
-438 -38
-438 -437
38 437 438
-439 39
-439 -438
-39 438 439
-440 -40
-440 439
40 -439 440
-441 -421
-441 -440
421 440 441
-442 41
-442 -436
-41 436 442
-443 -41
-443 -441
41 441 443
-444 -442
-444 -443
442 443 444
-445 126
-445 -444
-126 444 445
-446 40
-446 -126
-40 126 446
-447 -445
-447 -446
445 446 447
-448 40
-448 -434
-40 434 448
-449 10
-449 38
-10 -38 449
-450 39
-450 449
-39 -449 450
-451 40
-451 450
-40 -450 451
-452 41
-452 -448
-41 448 452
-453 -41
-453 451
41 -451 453
-454 -452
-454 -453
452 453 454
-455 126
-455 -454
-126 454 455
-456 41
-456 -126
-41 126 456
-457 -455
-457 -456
455 456 457
-458 -43
-458 -146
43 146 458
-459 44
-459 146
-44 -146 459
-460 -44
-460 -458
44 458 460
-461 -459
-461 -460
459 460 461
-462 -11
-462 42
11 -42 462
-463 42
-463 -462
-42 462 463
-464 43
-464 -463
-43 463 464
-465 11
-465 -42
-11 42 465
-466 -43
-466 465
43 -465 466
-467 -222
-467 -466
222 466 467
-468 44
-468 464
-44 -464 468
-469 -44
-469 -467
44 467 469
-470 -468
-470 -469
468 469 470
-471 45
-471 -461
-45 461 471
-472 -45
-472 -470
45 470 472
-473 -471
-473 -472
471 472 473
-474 127
-474 -473
-127 473 474
-475 42
-475 -127
-42 127 475
-476 -474
-476 -475
474 475 476
-477 42
-477 391
-42 -391 477
-478 -43
-478 477
43 -477 478
-479 -222
-479 -478
222 478 479
-480 44
-480 143
-44 -143 480
-481 -44
-481 -479
44 479 481
-482 -480
-482 -481
480 481 482
-483 43
-483 -464
-43 464 483
-484 -42
-484 -74
42 74 484
-485 43
-485 484
-43 -484 485
-486 -143
-486 -485
143 485 486
-487 44
-487 -483
-44 483 487
-488 -44
-488 -486
44 486 488
-489 -487
-489 -488
487 488 489
-490 45
-490 -482
-45 482 490
-491 -45
-491 -489
45 489 491
-492 -490
-492 -491
490 491 492
-493 127
-493 -492
-127 492 493
-494 43
-494 -127
-43 127 494
-495 -493
-495 -494
493 494 495
-496 42
-496 -391
-42 391 496
-497 42
-497 43
-42 -43 497
-498 -43
-498 496
43 -496 498
-499 -497
-499 -498
497 498 499
-500 -43
-500 44
43 -44 500
-501 -44
-501 -499
44 499 501
-502 -500
-502 -501
500 501 502
-503 -42
-503 74
42 -74 503
-504 -42
-504 -503
42 503 504
-505 43
-505 -504
-43 504 505
-506 -44
-506 505
44 -505 506
-507 -487
-507 -506
487 506 507
-508 45
-508 -502
-45 502 508
-509 -45
-509 -507
45 507 509
-510 -508
-510 -509
508 509 510
-511 127
-511 -510
-127 510 511
-512 44
-512 -127
-44 127 512
-513 -511
-513 -512
511 512 513
-514 44
-514 -500
-44 500 514
-515 11
-515 42
-11 -42 515
-516 43
-516 515
-43 -515 516
-517 44
-517 516
-44 -516 517
-518 45
-518 -514
-45 514 518
-519 -45
-519 517
45 -517 519
-520 -518
-520 -519
518 519 520
-521 127
-521 -520
-127 520 521
-522 45
-522 -127
-45 127 522
-523 -521
-523 -522
521 522 523
-524 -47
-524 -154
47 154 524
-525 48
-525 154
-48 -154 525
-526 -48
-526 -524
48 524 526
-527 -525
-527 -526
525 526 527
-528 -12
-528 46
12 -46 528
-529 46
-529 -528
-46 528 529
-530 47
-530 -529
-47 529 530
-531 12
-531 -46
-12 46 531
-532 -47
-532 531
47 -531 532
-533 -229
-533 -532
229 532 533
-534 48
-534 530
-48 -530 534
-535 -48
-535 -533
48 533 535
-536 -534
-536 -535
534 535 536
-537 49
-537 -527
-49 527 537
-538 -49
-538 -536
49 536 538
-539 -537
-539 -538
537 538 539
-540 128
-540 -539
-128 539 540
-541 46
-541 -128
-46 128 541
-542 -540
-542 -541
540 541 542
-543 46
-543 391
-46 -391 543
-544 -47
-544 543
47 -543 544
-545 -229
-545 -544
229 544 545
-546 48
-546 151
-48 -151 546
-547 -48
-547 -545
48 545 547
-548 -546
-548 -547
546 547 548
-549 47
-549 -530
-47 530 549
-550 -46
-550 -74
46 74 550
-551 47
-551 550
-47 -550 551
-552 -151
-552 -551
151 551 552
-553 48
-553 -549
-48 549 553
-554 -48
-554 -552
48 552 554
-555 -553
-555 -554
553 554 555
-556 49
-556 -548
-49 548 556
-557 -49
-557 -555
49 555 557
-558 -556
-558 -557
556 557 558
-559 128
-559 -558
-128 558 559
-560 47
-560 -128
-47 128 560
-561 -559
-561 -560
559 560 561
-562 46
-562 -391
-46 391 562
-563 46
-563 47
-46 -47 563
-564 -47
-564 562
47 -562 564
-565 -563
-565 -564
563 564 565
-566 -47
-566 48
47 -48 566
-567 -48
-567 -565
48 565 567
-568 -566
-568 -567
566 567 568
-569 -46
-569 74
46 -74 569
-570 -46
-570 -569
46 569 570
-571 47
-571 -570
-47 570 571
-572 -48
-572 571
48 -571 572
-573 -553
-573 -572
553 572 573
-574 49
-574 -568
-49 568 574
-575 -49
-575 -573
49 573 575
-576 -574
-576 -575
574 575 576
-577 128
-577 -576
-128 576 577
-578 48
-578 -128
-48 128 578
-579 -577
-579 -578
577 578 579
-580 48
-580 -566
-48 566 580
-581 12
-581 46
-12 -46 581
-582 47
-582 581
-47 -581 582
-583 48
-583 582
-48 -582 583
-584 49
-584 -580
-49 580 584
-585 -49
-585 583
49 -583 585
-586 -584
-586 -585
584 585 586
-587 128
-587 -586
-128 586 587
-588 49
-588 -128
-49 128 588
-589 -587
-589 -588
587 588 589
-590 -51
-590 -162
51 162 590
-591 52
-591 162
-52 -162 591
-592 -52
-592 -590
52 590 592
-593 -591
-593 -592
591 592 593
-594 -13
-594 50
13 -50 594
-595 50
-595 -594
-50 594 595
-596 51
-596 -595
-51 595 596
-597 13
-597 -50
-13 50 597
-598 -51
-598 597
51 -597 598
-599 -236
-599 -598
236 598 599
-600 52
-600 596
-52 -596 600
-601 -52
-601 -599
52 599 601
-602 -600
-602 -601
600 601 602
-603 53
-603 -593
-53 593 603
-604 -53
-604 -602
53 602 604
-605 -603
-605 -604
603 604 605
-606 129
-606 -605
-129 605 606
-607 50
-607 -129
-50 129 607
-608 -606
-608 -607
606 607 608
-609 50
-609 391
-50 -391 609
-610 -51
-610 609
51 -609 610
-611 -236
-611 -610
236 610 611
-612 52
-612 159
-52 -159 612
-613 -52
-613 -611
52 611 613
-614 -612
-614 -613
612 613 614
-615 51
-615 -596
-51 596 615
-616 -50
-616 -74
50 74 616
-617 51
-617 616
-51 -616 617
-618 -159
-618 -617
159 617 618
-619 52
-619 -615
-52 615 619
-620 -52
-620 -618
52 618 620
-621 -619
-621 -620
619 620 621
-622 53
-622 -614
-53 614 622
-623 -53
-623 -621
53 621 623
-624 -622
-624 -623
622 623 624
-625 129
-625 -624
-129 624 625
-626 51
-626 -129
-51 129 626
-627 -625
-627 -626
625 626 627
-628 50
-628 -391
-50 391 628
-629 50
-629 51
-50 -51 629
-630 -51
-630 628
51 -628 630
-631 -629
-631 -630
629 630 631
-632 -51
-632 52
51 -52 632
-633 -52
-633 -631
52 631 633
-634 -632
-634 -633
632 633 634
-635 -50
-635 74
50 -74 635
-636 -50
-636 -635
50 635 636
-637 51
-637 -636
-51 636 637
-638 -52
-638 637
52 -637 638
-639 -619
-639 -638
619 638 639
-640 53
-640 -634
-53 634 640
-641 -53
-641 -639
53 639 641
-642 -640
-642 -641
640 641 642
-643 129
-643 -642
-129 642 643
-644 52
-644 -129
-52 129 644
-645 -643
-645 -644
643 644 645
-646 52
-646 -632
-52 632 646
-647 13
-647 50
-13 -50 647
-648 51
-648 647
-51 -647 648
-649 52
-649 648
-52 -648 649
-650 53
-650 -646
-53 646 650
-651 -53
-651 649
53 -649 651
-652 -650
-652 -651
650 651 652
-653 129
-653 -652
-129 652 653
-654 53
-654 -129
-53 129 654
-655 -653
-655 -654
653 654 655
-656 -55
-656 -170
55 170 656
-657 56
-657 170
-56 -170 657
-658 -56
-658 -656
56 656 658
-659 -657
-659 -658
657 658 659
-660 -14
-660 54
14 -54 660
-661 54
-661 -660
-54 660 661
-662 55
-662 -661
-55 661 662
-663 14
-663 -54
-14 54 663
-664 -55
-664 663
55 -663 664
-665 -243
-665 -664
243 664 665
-666 56
-666 662
-56 -662 666
-667 -56
-667 -665
56 665 667
-668 -666
-668 -667
666 667 668
-669 57
-669 -659
-57 659 669
-670 -57
-670 -668
57 668 670
-671 -669
-671 -670
669 670 671
-672 130
-672 -671
-130 671 672
-673 54
-673 -130
-54 130 673
-674 -672
-674 -673
672 673 674
-675 54
-675 391
-54 -391 675
-676 -55
-676 675
55 -675 676
-677 -243
-677 -676
243 676 677
-678 56
-678 167
-56 -167 678
-679 -56
-679 -677
56 677 679
-680 -678
-680 -679
678 679 680
-681 55
-681 -662
-55 662 681
-682 -54
-682 -74
54 74 682
-683 55
-683 682
-55 -682 683
-684 -167
-684 -683
167 683 684
-685 56
-685 -681
-56 681 685
-686 -56
-686 -684
56 684 686
-687 -685
-687 -686
685 686 687
-688 57
-688 -680
-57 680 688
-689 -57
-689 -687
57 687 689
-690 -688
-690 -689
688 689 690
-691 130
-691 -690
-130 690 691
-692 55
-692 -130
-55 130 692
-693 -691
-693 -692
691 692 693
-694 54
-694 -391
-54 391 694
-695 54
-695 55
-54 -55 695
-696 -55
-696 694
55 -694 696
-697 -695
-697 -696
695 696 697
-698 -55
-698 56
55 -56 698
-699 -56
-699 -697
56 697 699
-700 -698
-700 -699
698 699 700
-701 -54
-701 74
54 -74 701
-702 -54
-702 -701
54 701 702
-703 55
-703 -702
-55 702 703
-704 -56
-704 703
56 -703 704
-705 -685
-705 -704
685 704 705
-706 57
-706 -700
-57 700 706
-707 -57
-707 -705
57 705 707
-708 -706
-708 -707
706 707 708
-709 130
-709 -708
-130 708 709
-710 56
-710 -130
-56 130 710
-711 -709
-711 -710
709 710 711
-712 56
-712 -698
-56 698 712
-713 14
-713 54
-14 -54 713
-714 55
-714 713
-55 -713 714
-715 56
-715 714
-56 -714 715
-716 57
-716 -712
-57 712 716
-717 -57
-717 715
57 -715 717
-718 -716
-718 -717
716 717 718
-719 130
-719 -718
-130 718 719
-720 57
-720 -130
-57 130 720
-721 -719
-721 -720
719 720 721
-722 -59
-722 -178
59 178 722
-723 60
-723 178
-60 -178 723
-724 -60
-724 -722
60 722 724
-725 -723
-725 -724
723 724 725
-726 -15
-726 58
15 -58 726
-727 58
-727 -726
-58 726 727
-728 59
-728 -727
-59 727 728
-729 15
-729 -58
-15 58 729
-730 -59
-730 729
59 -729 730
-731 -250
-731 -730
250 730 731
-732 60
-732 728
-60 -728 732
-733 -60
-733 -731
60 731 733
-734 -732
-734 -733
732 733 734
-735 61
-735 -725
-61 725 735
-736 -61
-736 -734
61 734 736
-737 -735
-737 -736
735 736 737
-738 131
-738 -737
-131 737 738
-739 58
-739 -131
-58 131 739
-740 -738
-740 -739
738 739 740
-741 58
-741 391
-58 -391 741
-742 -59
-742 741
59 -741 742
-743 -250
-743 -742
250 742 743
-744 60
-744 175
-60 -175 744
-745 -60
-745 -743
60 743 745
-746 -744
-746 -745
744 745 746
-747 59
-747 -728
-59 728 747
-748 -58
-748 -74
58 74 748
-749 59
-749 748
-59 -748 749
-750 -175
-750 -749
175 749 750
-751 60
-751 -747
-60 747 751
-752 -60
-752 -750
60 750 752
-753 -751
-753 -752
751 752 753
-754 61
-754 -746
-61 746 754
-755 -61
-755 -753
61 753 755
-756 -754
-756 -755
754 755 756
-757 131
-757 -756
-131 756 757
-758 59
-758 -131
-59 131 758
-759 -757
-759 -758
757 758 759
-760 58
-760 -391
-58 391 760
-761 58
-761 59
-58 -59 761
-762 -59
-762 760
59 -760 762
-763 -761
-763 -762
761 762 763
-764 -59
-764 60
59 -60 764
-765 -60
-765 -763
60 763 765
-766 -764
-766 -765
764 765 766
-767 -58
-767 74
58 -74 767
-768 -58
-768 -767
58 767 768
-769 59
-769 -768
-59 768 769
-770 -60
-770 769
60 -769 770
-771 -751
-771 -770
751 770 771
-772 61
-772 -766
-61 766 772
-773 -61
-773 -771
61 771 773
-774 -772
-774 -773
772 773 774
-775 131
-775 -774
-131 774 775
-776 60
-776 -131
-60 131 776
-777 -775
-777 -776
775 776 777
-778 60
-778 -764
-60 764 778
-779 15
-779 58
-15 -58 779
-780 59
-780 779
-59 -779 780
-781 60
-781 780
-60 -780 781
-782 61
-782 -778
-61 778 782
-783 -61
-783 781
61 -781 783
-784 -782
-784 -783
782 783 784
-785 131
-785 -784
-131 784 785
-786 61
-786 -131
-61 131 786
-787 -785
-787 -786
785 786 787
-788 -63
-788 -186
63 186 788
-789 64
-789 186
-64 -186 789
-790 -64
-790 -788
64 788 790
-791 -789
-791 -790
789 790 791
-792 -16
-792 62
16 -62 792
-793 62
-793 -792
-62 792 793
-794 63
-794 -793
-63 793 794
-795 16
-795 -62
-16 62 795
-796 -63
-796 795
63 -795 796
-797 -257
-797 -796
257 796 797
-798 64
-798 794
-64 -794 798
-799 -64
-799 -797
64 797 799
-800 -798
-800 -799
798 799 800
-801 65
-801 -791
-65 791 801
-802 -65
-802 -800
65 800 802
-803 -801
-803 -802
801 802 803
-804 132
-804 -803
-132 803 804
-805 62
-805 -132
-62 132 805
-806 -804
-806 -805
804 805 806
-807 62
-807 391
-62 -391 807
-808 -63
-808 807
63 -807 808
-809 -257
-809 -808
257 808 809
-810 64
-810 183
-64 -183 810
-811 -64
-811 -809
64 809 811
-812 -810
-812 -811
810 811 812
-813 63
-813 -794
-63 794 813
-814 -62
-814 -74
62 74 814
-815 63
-815 814
-63 -814 815
-816 -183
-816 -815
183 815 816
-817 64
-817 -813
-64 813 817
-818 -64
-818 -816
64 816 818
-819 -817
-819 -818
817 818 819
-820 65
-820 -812
-65 812 820
-821 -65
-821 -819
65 819 821
-822 -820
-822 -821
820 821 822
-823 132
-823 -822
-132 822 823
-824 63
-824 -132
-63 132 824
-825 -823
-825 -824
823 824 825
-826 62
-826 -391
-62 391 826
-827 62
-827 63
-62 -63 827
-828 -63
-828 826
63 -826 828
-829 -827
-829 -828
827 828 829
-830 -63
-830 64
63 -64 830
-831 -64
-831 -829
64 829 831
-832 -830
-832 -831
830 831 832
-833 -62
-833 74
62 -74 833
-834 -62
-834 -833
62 833 834
-835 63
-835 -834
-63 834 835
-836 -64
-836 835
64 -835 836
-837 -817
-837 -836
817 836 837
-838 65
-838 -832
-65 832 838
-839 -65
-839 -837
65 837 839
-840 -838
-840 -839
838 839 840
-841 132
-841 -840
-132 840 841
-842 64
-842 -132
-64 132 842
-843 -841
-843 -842
841 842 843
-844 64
-844 -830
-64 830 844
-845 16
-845 62
-16 -62 845
-846 63
-846 845
-63 -845 846
-847 64
-847 846
-64 -846 847
-848 65
-848 -844
-65 844 848
-849 -65
-849 847
65 -847 849
-850 -848
-850 -849
848 849 850
-851 132
-851 -850
-132 850 851
-852 65
-852 -132
-65 132 852
-853 -851
-853 -852
851 852 853
-854 -67
-854 -194
67 194 854
-855 68
-855 194
-68 -194 855
-856 -68
-856 -854
68 854 856
-857 -855
-857 -856
855 856 857
-858 -17
-858 66
17 -66 858
-859 66
-859 -858
-66 858 859
-860 67
-860 -859
-67 859 860
-861 17
-861 -66
-17 66 861
-862 -67
-862 861
67 -861 862
-863 -264
-863 -862
264 862 863
-864 68
-864 860
-68 -860 864
-865 -68
-865 -863
68 863 865
-866 -864
-866 -865
864 865 866
-867 69
-867 -857
-69 857 867
-868 -69
-868 -866
69 866 868
-869 -867
-869 -868
867 868 869
-870 133
-870 -869
-133 869 870
-871 66
-871 -133
-66 133 871
-872 -870
-872 -871
870 871 872
-873 66
-873 391
-66 -391 873
-874 -67
-874 873
67 -873 874
-875 -264
-875 -874
264 874 875
-876 68
-876 191
-68 -191 876
-877 -68
-877 -875
68 875 877
-878 -876
-878 -877
876 877 878
-879 67
-879 -860
-67 860 879
-880 -66
-880 -74
66 74 880
-881 67
-881 880
-67 -880 881
-882 -191
-882 -881
191 881 882
-883 68
-883 -879
-68 879 883
-884 -68
-884 -882
68 882 884
-885 -883
-885 -884
883 884 885
-886 69
-886 -878
-69 878 886
-887 -69
-887 -885
69 885 887
-888 -886
-888 -887
886 887 888
-889 133
-889 -888
-133 888 889
-890 67
-890 -133
-67 133 890
-891 -889
-891 -890
889 890 891
-892 66
-892 -391
-66 391 892
-893 66
-893 67
-66 -67 893
-894 -67
-894 892
67 -892 894
-895 -893
-895 -894
893 894 895
-896 -67
-896 68
67 -68 896
-897 -68
-897 -895
68 895 897
-898 -896
-898 -897
896 897 898
-899 -66
-899 74
66 -74 899
-900 -66
-900 -899
66 899 900
-901 67
-901 -900
-67 900 901
-902 -68
-902 901
68 -901 902
-903 -883
-903 -902
883 902 903
-904 69
-904 -898
-69 898 904
-905 -69
-905 -903
69 903 905
-906 -904
-906 -905
904 905 906
-907 133
-907 -906
-133 906 907
-908 68
-908 -133
-68 133 908
-909 -907
-909 -908
907 908 909
-910 68
-910 -896
-68 896 910
-911 17
-911 66
-17 -66 911
-912 67
-912 911
-67 -911 912
-913 68
-913 912
-68 -912 913
-914 69
-914 -910
-69 910 914
-915 -69
-915 913
69 -913 915
-916 -914
-916 -915
914 915 916
-917 133
-917 -916
-133 916 917
-918 69
-918 -133
-69 133 918
-919 -917
-919 -918
917 918 919
-920 -71
-920 -202
71 202 920
-921 72
-921 202
-72 -202 921
-922 -72
-922 -920
72 920 922
-923 -921
-923 -922
921 922 923
-924 -18
-924 70
18 -70 924
-925 70
-925 -924
-70 924 925
-926 71
-926 -925
-71 925 926
-927 18
-927 -70
-18 70 927
-928 -71
-928 927
71 -927 928
-929 -271
-929 -928
271 928 929
-930 72
-930 926
-72 -926 930
-931 -72
-931 -929
72 929 931
-932 -930
-932 -931
930 931 932
-933 73
-933 -923
-73 923 933
-934 -73
-934 -932
73 932 934
-935 -933
-935 -934
933 934 935
-936 134
-936 -935
-134 935 936
-937 70
-937 -134
-70 134 937
-938 -936
-938 -937
936 937 938
-939 70
-939 391
-70 -391 939
-940 -71
-940 939
71 -939 940
-941 -271
-941 -940
271 940 941
-942 72
-942 199
-72 -199 942
-943 -72
-943 -941
72 941 943
-944 -942
-944 -943
942 943 944
-945 71
-945 -926
-71 926 945
-946 -70
-946 -74
70 74 946
-947 71
-947 946
-71 -946 947
-948 -199
-948 -947
199 947 948
-949 72
-949 -945
-72 945 949
-950 -72
-950 -948
72 948 950
-951 -949
-951 -950
949 950 951
-952 73
-952 -944
-73 944 952
-953 -73
-953 -951
73 951 953
-954 -952
-954 -953
952 953 954
-955 134
-955 -954
-134 954 955
-956 71
-956 -134
-71 134 956
-957 -955
-957 -956
955 956 957
-958 70
-958 -391
-70 391 958
-959 70
-959 71
-70 -71 959
-960 -71
-960 958
71 -958 960
-961 -959
-961 -960
959 960 961
-962 -71
-962 72
71 -72 962
-963 -72
-963 -961
72 961 963
-964 -962
-964 -963
962 963 964
-965 -70
-965 74
70 -74 965
-966 -70
-966 -965
70 965 966
-967 71
-967 -966
-71 966 967
-968 -72
-968 967
72 -967 968
-969 -949
-969 -968
949 968 969
-970 73
-970 -964
-73 964 970
-971 -73
-971 -969
73 969 971
-972 -970
-972 -971
970 971 972
-973 134
-973 -972
-134 972 973
-974 72
-974 -134
-72 134 974
-975 -973
-975 -974
973 974 975
-976 72
-976 -962
-72 962 976
-977 18
-977 70
-18 -70 977
-978 71
-978 977
-71 -977 978
-979 72
-979 978
-72 -978 979
-980 73
-980 -976
-73 976 980
-981 -73
-981 979
73 -979 981
-982 -980
-982 -981
980 981 982
-983 134
-983 -982
-134 982 983
-984 73
-984 -134
-73 134 984
-985 -983
-985 -984
983 984 985
-986 136
-986 431
-136 -431 986
-987 126
-987 986
-126 -986 987
-988 144
-988 497
-144 -497 988
-989 127
-989 988
-127 -988 989
-990 152
-990 563
-152 -563 990
-991 128
-991 990
-128 -990 991
-992 160
-992 629
-160 -629 992
-993 129
-993 992
-129 -992 993
-994 168
-994 695
-168 -695 994
-995 130
-995 994
-130 -994 995
-996 176
-996 761
-176 -761 996
-997 131
-997 996
-131 -996 997
-998 184
-998 827
-184 -827 998
-999 132
-999 998
-132 -998 999
-1000 192
-1000 893
-192 -893 1000
-1001 133
-1001 1000
-133 -1000 1001
-1002 200
-1002 959
-200 -959 1002
-1003 134
-1003 1002
-134 -1002 1003
-1004 -987
-1004 -989
987 989 1004
-1005 -991
-1005 -993
991 993 1005
-1006 -995
-1006 -997
995 997 1006
-1007 -999
-1007 -1001
999 1001 1007
-1008 1004
-1008 1005
-1004 -1005 1008
-1009 1006
-1009 1007
-1006 -1007 1009
-1010 1008
-1010 1009
-1008 -1009 1010
-1011 -1003
-1011 1010
1003 -1010 1011
-1012 139
-1012 215
-139 -215 1012
-1013 126
-1013 1012
-126 -1012 1013
-1014 147
-1014 222
-147 -222 1014
-1015 127
-1015 1014
-127 -1014 1015
-1016 155
-1016 229
-155 -229 1016
-1017 128
-1017 1016
-128 -1016 1017
-1018 163
-1018 236
-163 -236 1018
-1019 129
-1019 1018
-129 -1018 1019
-1020 171
-1020 243
-171 -243 1020
-1021 130
-1021 1020
-130 -1020 1021
-1022 179
-1022 250
-179 -250 1022
-1023 131
-1023 1022
-131 -1022 1023
-1024 187
-1024 257
-187 -257 1024
-1025 132
-1025 1024
-132 -1024 1025
-1026 195
-1026 264
-195 -264 1026
-1027 133
-1027 1026
-133 -1026 1027
-1028 203
-1028 271
-203 -271 1028
-1029 134
-1029 1028
-134 -1028 1029
-1030 -1013
-1030 -1015
1013 1015 1030
-1031 -1017
-1031 -1019
1017 1019 1031
-1032 -1021
-1032 -1023
1021 1023 1032
-1033 -1025
-1033 -1027
1025 1027 1033
-1034 1030
-1034 1031
-1030 -1031 1034
-1035 1032
-1035 1033
-1032 -1033 1035
-1036 1034
-1036 1035
-1034 -1035 1036
-1037 -1029
-1037 1036
1029 -1036 1037
-1038 -74
-1038 -1037
74 1037 1038
-1039 74
-1039 1037
-74 -1037 1039
-1040 -1038
-1040 -1039
1038 1039 1040
-1041 -74
-1041 -1011
74 1011 1041
-1042 1011
-1042 -1040
-1011 1040 1042
-1043 -1041
-1043 -1042
1041 1042 1043
-1044 216
-1044 431
-216 -431 1044
-1045 -29
-1045 1044
29 -1044 1045
-1046 223
-1046 497
-223 -497 1046
-1047 -30
-1047 1046
30 -1046 1047
-1048 230
-1048 563
-230 -563 1048
-1049 -31
-1049 1048
31 -1048 1049
-1050 237
-1050 629
-237 -629 1050
-1051 -32
-1051 1050
32 -1050 1051
-1052 244
-1052 695
-244 -695 1052
-1053 -33
-1053 1052
33 -1052 1053
-1054 251
-1054 761
-251 -761 1054
-1055 -34
-1055 1054
34 -1054 1055
-1056 258
-1056 827
-258 -827 1056
-1057 -35
-1057 1056
35 -1056 1057
-1058 265
-1058 893
-265 -893 1058
-1059 -36
-1059 1058
36 -1058 1059
-1060 272
-1060 959
-272 -959 1060
-1061 -37
-1061 1060
37 -1060 1061
-1062 1045
-1062 -1047
-1045 1047 1062
-1063 -1045
-1063 1047
1045 -1047 1063
-1064 -1062
-1064 -1063
1062 1063 1064
-1065 1045
-1065 1047
-1045 -1047 1065
-1066 -1049
-1066 -1064
1049 1064 1066
-1067 1049
-1067 1064
-1049 -1064 1067
-1068 -1066
-1068 -1067
1066 1067 1068
-1069 1049
-1069 -1064
-1049 1064 1069
-1070 1065
-1070 -1069
-1065 1069 1070
-1071 -1065
-1071 1069
1065 -1069 1071
-1072 -1070
-1072 -1071
1070 1071 1072
-1073 1065
-1073 1069
-1065 -1069 1073
-1074 -1051
-1074 -1068
1051 1068 1074
-1075 1051
-1075 1068
-1051 -1068 1075
-1076 -1074
-1076 -1075
1074 1075 1076
-1077 1051
-1077 -1068
-1051 1068 1077
-1078 -1073
-1078 -1076
1073 1076 1078
-1079 1073
-1079 1076
-1073 -1076 1079
-1080 -1078
-1080 -1079
1078 1079 1080
-1081 1073
-1081 -1076
-1073 1076 1081
-1082 -1077
-1082 -1081
1077 1081 1082
-1083 -1072
-1083 1082
1072 -1082 1083
-1084 1072
-1084 -1082
-1072 1082 1084
-1085 -1083
-1085 -1084
1083 1084 1085
-1086 -1072
-1086 -1082
1072 1082 1086
-1087 -1053
-1087 -1080
1053 1080 1087
-1088 1053
-1088 1080
-1053 -1080 1088
-1089 -1087
-1089 -1088
1087 1088 1089
-1090 1053
-1090 -1080
-1053 1080 1090
-1091 -1085
-1091 -1090
1085 1090 1091
-1092 1085
-1092 1090
-1085 -1090 1092
-1093 -1091
-1093 -1092
1091 1092 1093
-1094 -1085
-1094 1090
1085 -1090 1094
-1095 1086
-1095 -1094
-1086 1094 1095
-1096 -1086
-1096 1094
1086 -1094 1096
-1097 -1095
-1097 -1096
1095 1096 1097
-1098 1086
-1098 1094
-1086 -1094 1098
-1099 -1055
-1099 -1089
1055 1089 1099
-1100 1055
-1100 1089
-1055 -1089 1100
-1101 -1099
-1101 -1100
1099 1100 1101
-1102 1055
-1102 -1089
-1055 1089 1102
-1103 -1098
-1103 -1101
1098 1101 1103
-1104 1098
-1104 1101
-1098 -1101 1104
-1105 -1103
-1105 -1104
1103 1104 1105
-1106 1098
-1106 -1101
-1098 1101 1106
-1107 -1102
-1107 -1106
1102 1106 1107
-1108 -1093
-1108 1107
1093 -1107 1108
-1109 1093
-1109 -1107
-1093 1107 1109
-1110 -1108
-1110 -1109
1108 1109 1110
-1111 -1093
-1111 -1107
1093 1107 1111
-1112 -1097
-1112 -1111
1097 1111 1112
-1113 1097
-1113 1111
-1097 -1111 1113
-1114 -1112
-1114 -1113
1112 1113 1114
-1115 -1097
-1115 1111
1097 -1111 1115
-1116 -1057
-1116 -1105
1057 1105 1116
-1117 1057
-1117 1105
-1057 -1105 1117
-1118 -1116
-1118 -1117
1116 1117 1118
-1119 1057
-1119 -1105
-1057 1105 1119
-1120 -1115
-1120 -1118
1115 1118 1120
-1121 1115
-1121 1118
-1115 -1118 1121
-1122 -1120
-1122 -1121
1120 1121 1122
-1123 1115
-1123 -1118
-1115 1118 1123
-1124 -1119
-1124 -1123
1119 1123 1124
-1125 -1110
-1125 1124
1110 -1124 1125
-1126 1110
-1126 -1124
-1110 1124 1126
-1127 -1125
-1127 -1126
1125 1126 1127
-1128 -1110
-1128 -1124
1110 1124 1128
-1129 -1114
-1129 -1128
1114 1128 1129
-1130 1114
-1130 1128
-1114 -1128 1130
-1131 -1129
-1131 -1130
1129 1130 1131
-1132 -1114
-1132 1128
1114 -1128 1132
-1133 -1059
-1133 -1122
1059 1122 1133
-1134 1059
-1134 1122
-1059 -1122 1134
-1135 -1133
-1135 -1134
1133 1134 1135
-1136 1059
-1136 -1122
-1059 1122 1136
-1137 -1132
-1137 -1135
1132 1135 1137
-1138 1132
-1138 1135
-1132 -1135 1138
-1139 -1137
-1139 -1138
1137 1138 1139
-1140 1132
-1140 -1135
-1132 1135 1140
-1141 -1136
-1141 -1140
1136 1140 1141
-1142 -1127
-1142 1141
1127 -1141 1142
-1143 1127
-1143 -1141
-1127 1141 1143
-1144 -1142
-1144 -1143
1142 1143 1144
-1145 -1127
-1145 -1141
1127 1141 1145
-1146 -1131
-1146 -1145
1131 1145 1146
-1147 1131
-1147 1145
-1131 -1145 1147
-1148 -1146
-1148 -1147
1146 1147 1148
-1149 -1131
-1149 1145
1131 -1145 1149
-1150 -1061
-1150 -1139
1061 1139 1150
-1151 1061
-1151 1139
-1061 -1139 1151
-1152 -1150
-1152 -1151
1150 1151 1152
-1153 1061
-1153 -1139
-1061 1139 1153
-1154 -1144
-1154 -1153
1144 1153 1154
-1155 1144
-1155 1153
-1144 -1153 1155
-1156 -1154
-1156 -1155
1154 1155 1156
-1157 -1144
-1157 1153
1144 -1153 1157
-1158 -1148
-1158 -1157
1148 1157 1158
-1159 1148
-1159 1157
-1148 -1157 1159
-1160 -1158
-1160 -1159
1158 1159 1160
-1161 -1148
-1161 1157
1148 -1157 1161
-1162 1149
-1162 -1161
-1149 1161 1162
-1163 -1149
-1163 1161
1149 -1161 1163
-1164 -1162
-1164 -1163
1162 1163 1164
-1165 1149
-1165 1161
-1149 -1161 1165
-1166 -1156
-1166 1160
1156 -1160 1166
-1167 1160
-1167 -1166
-1160 1166 1167
-1168 1164
-1168 -1167
-1164 1167 1168
-1169 1164
-1169 -1168
-1164 1168 1169
-1170 -74
-1170 -391
74 391 1170
-1171 74
-1171 -1011
-74 1011 1171
-1172 1169
-1172 -1171
-1169 1171 1172
-1173 -1038
-1173 -1170
1038 1170 1173
-1174 1172
-1174 1173
-1172 -1173 1174
-1174
